files/upTests/___types/func_AsReln_RelationAsSet/0001.eprime
language ESSENCE' 1.0

letting Index be domain int(1..2)
find f_AsReln_RelationAsSet_ExplicitVarSize_tuple1:
        matrix indexed by [int(1..4)] of bool
find f_AsReln_RelationAsSet_ExplicitVarSize_tuple2_tuple1:
        matrix indexed by [int(1..4)] of Index
find f_AsReln_RelationAsSet_ExplicitVarSize_tuple2_tuple2:
        matrix indexed by [int(1..4)] of int(-1, 1)
such that
    forAll v__7 : int(1..4)
        . f_AsReln_RelationAsSet_ExplicitVarSize_tuple1[v__7]
          ->
          (sum v__6 : int(1..4)
               . (f_AsReln_RelationAsSet_ExplicitVarSize_tuple2_tuple1[v__6]
                  =
                  f_AsReln_RelationAsSet_ExplicitVarSize_tuple2_tuple1[v__7]
                  /\
                  f_AsReln_RelationAsSet_ExplicitVarSize_tuple1[v__6])
                 *
                 f_AsReln_RelationAsSet_ExplicitVarSize_tuple2_tuple2[v__6])
          =
          (1 = f_AsReln_RelationAsSet_ExplicitVarSize_tuple2_tuple1[v__7]) * -1
          +
          (2 = f_AsReln_RelationAsSet_ExplicitVarSize_tuple2_tuple1[v__7]),
    forAll v__1 : Index
        . (sum v__9 : int(1..4)
               . f_AsReln_RelationAsSet_ExplicitVarSize_tuple1[v__9]
                 *
                 (v__1 = f_AsReln_RelationAsSet_ExplicitVarSize_tuple2_tuple1[v__9]))
          =
          1,
    forAll v__3 : int(1..4)
        . (forAll v__5 : int(1..4)
               . v__3 < v__5 /\ f_AsReln_RelationAsSet_ExplicitVarSize_tuple1[v__3]
                 /\
                 f_AsReln_RelationAsSet_ExplicitVarSize_tuple1[v__5]
                 ->
                 f_AsReln_RelationAsSet_ExplicitVarSize_tuple2_tuple1[v__3]
                 !=
                 f_AsReln_RelationAsSet_ExplicitVarSize_tuple2_tuple1[v__5]
                 \/
                 f_AsReln_RelationAsSet_ExplicitVarSize_tuple2_tuple2[v__3]
                 !=
                 f_AsReln_RelationAsSet_ExplicitVarSize_tuple2_tuple2[v__5]),
    forAll v__3 : int(1..3)
        . f_AsReln_RelationAsSet_ExplicitVarSize_tuple1[v__3]
          <=
          f_AsReln_RelationAsSet_ExplicitVarSize_tuple1[v__3 + 1]
