files/upTests/___types/func_AsReln_RelationAsSet/0001.eprime.solution
language ESSENCE' 1.0
$ minion Nodes: 8
$ minion TotalTime: 0.003801
$ Savile Row TotalTime: 0.403
letting f_AsReln_RelationAsSet_ExplicitVarSize_tuple2_tuple2 be [-1, -1, -1, 1]
letting f_AsReln_RelationAsSet_ExplicitVarSize_tuple2_tuple1 be [1, 1, 1, 2]
letting f_AsReln_RelationAsSet_ExplicitVarSize_tuple1 be [0, 0, 1, 1]
